! rhf 6-31g opt

* xyzfile 0 1 aspirin.xyz *