 $SYSTEM TIMLIM=60000.0  MWORDS=90 $END
 $basis gbasis=n31 ngauss=6 
 $end 
 $SCF DIRSCF=.T. DAMP=.T. SHIFT=.T. ETHRSH=5  $END
 $contrl dfttyp=b3lyp $end
 $contrl   SCFTYP=RHF MAXIT=200 ICHARG=0 MULT=1
 RUNTYP=optimize nzvar=240   $END 
 $statpt   nstep=500   $end
 $GUESS GUESS=HUCKEL $END
 $zmat auto=.t. dlc=.t. 
 $end
 $DATA
 C9H8O4
C1
CARBON      6.0      2.056390000        -0.165430000         0.397270000
CARBON      6.0      0.688900000         2.028540000        -0.648160000
CARBON      6.0      2.740710000         1.023270000         0.125330000
CARBON      6.0      2.057340000         2.117820000        -0.400160000
CARBON      6.0     -3.593960000         1.032090000         0.045890000
CARBON      6.0      0.677380000        -0.275070000         0.150970000
CARBON      6.0      0.002740000         0.842340000        -0.358870000
OXYGEN      8.0      0.632930000        -2.545260000         0.933600000
OXYGEN      8.0     -1.764520000         1.432520000         1.565710000
OXYGEN      8.0     -1.248940000        -1.684110000         0.129750000
CARBON      6.0      0.052780000        -1.588810000         0.449580000
CARBON      6.0     -2.151990000         1.128410000         0.445130000
OXYGEN      8.0     -1.361670000         0.828320000        -0.658250000
HYDROGEN    1.0     -1.476520000        -2.601110000         0.392320000
HYDROGEN    1.0      2.609480000        -1.011730000         0.802840000
HYDROGEN    1.0      0.157080000         2.882660000        -1.058230000
HYDROGEN    1.0      3.807770000         1.091260000         0.323640000
HYDROGEN    1.0      2.590440000         3.040810000        -0.614050000
HYDROGEN    1.0     -3.816400000         0.020490000        -0.302870000
HYDROGEN    1.0     -4.224800000         1.245910000         0.914400000
HYDROGEN    1.0     -3.812960000         1.765760000        -0.733320000
 $END



