! rhf 6-31g opt

* xyzfile 0 1 atoms.xyz *