! rks b3lyp 6-31g opt

* xyzfile 0 1 atoms.xyz *