! rks b3lyp/g 6-31g opt

* xyzfile 0 1 atoms.xyz *
